ID_groupA
34754
36585
34754
34754
34754
34754
34754
34754
34754
34754
34754
33224
34754
34754
36585
34754
34754
34754
34754
34754
34754
34754
34754
34754
33224
33224
34754
36585
36585
36585
36585
36585
36585
36585
36585
36585
36585
36585
36585
34754
34754
34754
34754
34754
34754
34754
34754
34754
34754
34754
34754
45363
34754
34754
34754
34754
34754
33224
34754
34754
34754
34754
34754
34754
33224
34754
33224
33224
34754
45363
34754
34754
34754
45363
33224
34754
45363
34754
34754
34754
34754
34754
34754
34754
15925
34754
34754
34754
34754
34754
34754
34754
33224
34754
34754
34754
33224
33224
33224
33224
33224
34754
33224
33224
33224
